c cvc-mult-const_const5_2n_3
c i 2  4  6  3  5  8  13  20  27  0
c 2  : (a_117)[0]
c 3  : (c_118)[0]
c 4  : (a_117)[1]
c 5  : (c_118)[1]
c 6  : (a_117)[2]
c 7  : n2894
c 8  : (c_118)[2]
c 9  : n2784
c 10  : n2897
c 11  : n2899
c 12  : n2901
c 13  : (c_118)[3]
c 14  : n2785
c 15  : n2905
c 16  : n2907
c 17  : n2909
c 18  : n2910
c 19  : n2911
c 20  : (c_118)[4]
c 21  : n2786
c 22  : n2915
c 23  : n2917
c 24  : n2918
c 25  : n2919
c 26  : n2920
c 27  : (c_118)[5]
p cnf 26 62
-2  3  0
2  -3  0
-4  5  0
4  -5  0
2  6  -7  0
-2  -6  -7  0
-2  6  7  0
2  -6  7  0
-7  8  0
7  -8  0
4  9  -10  0
-4  -9  -10  0
-4  9  10  0
4  -9  10  0
6  -11  0
2  -11  0
-2  -6  11  0
10  11  -12  0
-10  -11  -12  0
10  -11  12  0
-10  11  12  0
-12  13  0
12  -13  0
6  14  -15  0
-6  -14  -15  0
-6  14  15  0
6  -14  15  0
9  -16  0
4  -16  0
-4  -9  16  0
10  -17  0
6  -17  0
2  -17  0
-2  -6  -10  17  0
-16  18  0
-17  18  0
16  17  -18  0
15  18  -19  0
-15  -18  -19  0
15  -18  19  0
-15  18  19  0
-19  20  0
19  -20  0
9  21  -22  0
-9  -21  -22  0
-9  21  22  0
9  -21  22  0
14  -23  0
6  -23  0
-6  -14  23  0
15  -24  0
18  -24  0
-15  -18  24  0
-23  25  0
-24  25  0
23  24  -25  0
22  25  -26  0
-22  -25  -26  0
22  -25  26  0
-22  25  26  0
-26  27  0
26  -27  0
-9  0
-14  0
-21  0
